n_nodes = 723;
M = 6701;
n_domains = 18;
domain_link_weights = [|0,6701,6701,358,6701,6701,6701,6701,6701,6701,6701,6701,6701,6701,6701,6701,6701,6701|6701,0,6701,6701,6701,479,344,264,6701,6701,6701,6701,6701,6701,6701,6701,6701,6701|6701,6701,0,6701,6701,6701,6701,6701,6701,972,6701,6701,6701,6701,1788,6701,6701,6701|6701,6701,6701,0,6701,6701,6701,6701,6701,6701,6701,6701,6701,6701,6701,6701,6701,6701|6701,6701,6701,6701,0,364,358,173,6701,6701,6701,6701,6701,6701,6701,6701,6701,6223|6701,6701,6701,6701,6701,0,6701,6701,6701,6701,6701,6701,6701,6701,6701,6701,6701,6701|6701,6701,6701,6701,6701,6701,0,6701,5585,6701,6701,6701,6701,6701,6701,6701,6701,6701|6701,6701,6701,6701,6701,6701,6701,0,6701,6701,6701,6701,6701,6701,6701,6701,6701,6701|6701,6701,6701,6701,6701,6701,6701,6701,0,6701,6701,6701,6701,6701,6701,1148,556,350|6701,6701,6701,6701,6701,6701,6701,6701,6701,0,6701,6701,6701,2562,6701,943,6701,852|6701,6701,6701,6701,6701,6701,6701,6701,6701,6701,0,1141,6701,6701,6701,2795,6701,6701|6701,6701,6701,6701,6701,6701,6701,6701,6701,6701,6701,0,492,6701,6701,2963,6701,3855|6701,6701,6701,6701,6701,6701,6701,6701,6701,6701,6701,6701,0,575,1995,2807,6701,6701|6701,6701,6701,6701,6701,6701,6701,6701,6701,6701,6701,6701,6701,0,1425,6701,6701,6701|6701,6701,6701,6701,6701,6701,6701,6701,6701,6701,6701,6701,6701,6701,0,1291,6701,1872|6701,6701,6701,6701,6701,6701,6701,6701,6701,6701,6701,6701,6701,6701,6701,0,704,916|6701,6701,6701,6701,6701,6701,6701,6701,6701,6701,6701,6701,6701,6701,6701,6701,0,6701|6701,6701,6701,6701,6701,6701,6701,6701,6701,6701,6701,6701,6701,6701,6701,6701,6701,0|];
num_node_links = 1441;
node_links = [|1,3|1,4|2,6|2,7|2,8|3,10|3,15|5,6|5,7|5,8|5,18|7,9|9,16|9,17|9,18|10,14|10,16|10,18|11,12|11,16|12,13|12,16|12,18|13,14|13,15|13,16|14,15|15,16|15,18|16,17|16,18|1,19|19,1|1,51|51,1|1,65|65,1|1,66|66,1|1,115|115,1|1,117|117,1|1,119|119,1|1,139|139,1|1,167|167,1|1,173|173,1|1,208|208,1|1,226|226,1|1,233|233,1|1,240|240,1|1,242|242,1|1,291|291,1|1,299|299,1|1,300|300,1|1,304|304,1|1,306|306,1|1,344|344,1|1,355|355,1|1,477|477,1|1,508|508,1|1,516|516,1|1,522|522,1|1,530|530,1|1,531|531,1|1,579|579,1|1,581|581,1|1,582|582,1|1,583|583,1|1,585|585,1|1,593|593,1|1,601|601,1|1,635|635,1|1,658|658,1|1,662|662,1|1,677|677,1|1,702|702,1|2,20|20,2|2,97|97,2|2,126|126,2|2,128|128,2|2,130|130,2|2,192|192,2|2,196|196,2|2,201|201,2|2,224|224,2|2,292|292,2|2,298|298,2|2,317|317,2|2,331|331,2|2,334|334,2|2,338|338,2|2,353|353,2|2,374|374,2|2,379|379,2|2,423|423,2|2,424|424,2|2,426|426,2|2,448|448,2|2,487|487,2|2,511|511,2|2,534|534,2|2,548|548,2|2,553|553,2|2,557|557,2|2,564|564,2|2,595|595,2|2,606|606,2|2,642|642,2|2,668|668,2|2,678|678,2|2,691|691,2|2,694|694,2|2,698|698,2|2,699|699,2|2,703|703,2|2,723|723,2|3,21|21,3|3,42|42,3|3,44|44,3|3,57|57,3|3,68|68,3|3,88|88,3|3,132|132,3|3,135|135,3|3,172|172,3|3,185|185,3|3,194|194,3|3,203|203,3|3,207|207,3|3,212|212,3|3,214|214,3|3,230|230,3|3,239|239,3|3,262|262,3|3,266|266,3|3,275|275,3|3,276|276,3|3,294|294,3|3,329|329,3|3,342|342,3|3,360|360,3|3,370|370,3|3,414|414,3|3,447|447,3|3,502|502,3|3,518|518,3|3,519|519,3|3,544|544,3|3,556|556,3|3,571|571,3|3,640|640,3|3,645|645,3|3,654|654,3|3,656|656,3|3,665|665,3|3,707|707,3|4,22|22,4|4,46|46,4|4,106|106,4|4,123|123,4|4,129|129,4|4,138|138,4|4,144|144,4|4,153|153,4|4,154|154,4|4,162|162,4|4,180|180,4|4,181|181,4|4,200|200,4|4,249|249,4|4,258|258,4|4,307|307,4|4,318|318,4|4,323|323,4|4,350|350,4|4,354|354,4|4,359|359,4|4,364|364,4|4,406|406,4|4,413|413,4|4,419|419,4|4,445|445,4|4,474|474,4|4,481|481,4|4,515|515,4|4,525|525,4|4,558|558,4|4,578|578,4|4,625|625,4|4,633|633,4|4,638|638,4|4,641|641,4|4,648|648,4|4,652|652,4|4,657|657,4|4,696|696,4|5,23|23,5|5,39|39,5|5,47|47,5|5,55|55,5|5,74|74,5|5,75|75,5|5,90|90,5|5,95|95,5|5,103|103,5|5,112|112,5|5,121|121,5|5,142|142,5|5,149|149,5|5,159|159,5|5,170|170,5|5,183|183,5|5,238|238,5|5,269|269,5|5,315|315,5|5,325|325,5|5,330|330,5|5,332|332,5|5,336|336,5|5,390|390,5|5,396|396,5|5,422|422,5|5,449|449,5|5,501|501,5|5,520|520,5|5,533|533,5|5,546|546,5|5,586|586,5|5,589|589,5|5,594|594,5|5,604|604,5|5,609|609,5|5,629|629,5|5,672|672,5|5,688|688,5|5,711|711,5|6,24|24,6|6,40|40,6|6,77|77,6|6,89|89,6|6,100|100,6|6,104|104,6|6,110|110,6|6,127|127,6|6,161|161,6|6,168|168,6|6,199|199,6|6,220|220,6|6,225|225,6|6,247|247,6|6,252|252,6|6,270|270,6|6,303|303,6|6,310|310,6|6,312|312,6|6,401|401,6|6,428|428,6|6,482|482,6|6,483|483,6|6,494|494,6|6,499|499,6|6,521|521,6|6,539|539,6|6,559|559,6|6,561|561,6|6,566|566,6|6,577|577,6|6,617|617,6|6,627|627,6|6,630|630,6|6,660|660,6|6,663|663,6|6,671|671,6|6,697|697,6|6,709|709,6|6,717|717,6|7,25|25,7|7,49|49,7|7,72|72,7|7,76|76,7|7,158|158,7|7,163|163,7|7,237|237,7|7,244|244,7|7,255|255,7|7,265|265,7|7,271|271,7|7,279|279,7|7,290|290,7|7,305|305,7|7,320|320,7|7,361|361,7|7,420|420,7|7,430|430,7|7,431|431,7|7,432|432,7|7,433|433,7|7,437|437,7|7,465|465,7|7,470|470,7|7,475|475,7|7,498|498,7|7,507|507,7|7,526|526,7|7,549|549,7|7,552|552,7|7,570|570,7|7,602|602,7|7,605|605,7|7,620|620,7|7,623|623,7|7,646|646,7|7,664|664,7|7,673|673,7|7,675|675,7|7,684|684,7|8,26|26,8|8,54|54,8|8,70|70,8|8,73|73,8|8,83|83,8|8,91|91,8|8,96|96,8|8,111|111,8|8,137|137,8|8,174|174,8|8,182|182,8|8,202|202,8|8,260|260,8|8,289|289,8|8,296|296,8|8,302|302,8|8,326|326,8|8,378|378,8|8,382|382,8|8,391|391,8|8,393|393,8|8,394|394,8|8,418|418,8|8,443|443,8|8,444|444,8|8,456|456,8|8,467|467,8|8,497|497,8|8,517|517,8|8,532|532,8|8,562|562,8|8,568|568,8|8,575|575,8|8,608|608,8|8,619|619,8|8,647|647,8|8,651|651,8|8,667|667,8|8,692|692,8|8,710|710,8|9,27|27,9|9,38|38,9|9,92|92,9|9,133|133,9|9,143|143,9|9,191|191,9|9,193|193,9|9,223|223,9|9,274|274,9|9,280|280,9|9,284|284,9|9,295|295,9|9,301|301,9|9,333|333,9|9,348|348,9|9,356|356,9|9,357|357,9|9,384|384,9|9,388|388,9|9,395|395,9|9,403|403,9|9,411|411,9|9,446|446,9|9,455|455,9|9,460|460,9|9,471|471,9|9,472|472,9|9,478|478,9|9,500|500,9|9,610|610,9|9,615|615,9|9,618|618,9|9,661|661,9|9,687|687,9|9,693|693,9|9,713|713,9|9,714|714,9|9,722|722,9|10,28|28,10|10,59|59,10|10,78|78,10|10,157|157,10|10,186|186,10|10,209|209,10|10,218|218,10|10,245|245,10|10,256|256,10|10,259|259,10|10,282|282,10|10,319|319,10|10,322|322,10|10,341|341,10|10,376|376,10|10,399|399,10|10,408|408,10|10,412|412,10|10,415|415,10|10,417|417,10|10,425|425,10|10,436|436,10|10,439|439,10|10,441|441,10|10,505|505,10|10,510|510,10|10,527|527,10|10,540|540,10|10,560|560,10|10,565|565,10|10,569|569,10|10,573|573,10|10,607|607,10|10,613|613,10|10,637|637,10|10,659|659,10|10,669|669,10|10,681|681,10|10,706|706,10|10,721|721,10|11,29|29,11|11,48|48,11|11,61|61,11|11,69|69,11|11,80|80,11|11,84|84,11|11,98|98,11|11,116|116,11|11,125|125,11|11,169|169,11|11,176|176,11|11,187|187,11|11,188|188,11|11,222|222,11|11,231|231,11|11,234|234,11|11,246|246,11|11,250|250,11|11,253|253,11|11,278|278,11|11,340|340,11|11,400|400,11|11,405|405,11|11,409|409,11|11,435|435,11|11,457|457,11|11,464|464,11|11,469|469,11|11,504|504,11|11,536|536,11|11,537|537,11|11,596|596,11|11,599|599,11|11,612|612,11|11,644|644,11|11,670|670,11|11,676|676,11|11,708|708,11|11,712|712,11|11,720|720,11|12,30|30,12|12,37|37,12|12,53|53,12|12,56|56,12|12,58|58,12|12,81|81,12|12,86|86,12|12,108|108,12|12,114|114,12|12,124|124,12|12,141|141,12|12,145|145,12|12,166|166,12|12,204|204,12|12,205|205,12|12,210|210,12|12,213|213,12|12,216|216,12|12,251|251,12|12,281|281,12|12,314|314,12|12,335|335,12|12,349|349,12|12,352|352,12|12,362|362,12|12,386|386,12|12,427|427,12|12,567|567,12|12,572|572,12|12,600|600,12|12,603|603,12|12,616|616,12|12,621|621,12|12,636|636,12|12,639|639,12|12,655|655,12|12,666|666,12|12,701|701,12|13,31|31,13|13,45|45,13|13,50|50,13|13,52|52,13|13,67|67,13|13,150|150,13|13,184|184,13|13,217|217,13|13,219|219,13|13,229|229,13|13,241|241,13|13,273|273,13|13,286|286,13|13,287|287,13|13,288|288,13|13,337|337,13|13,345|345,13|13,347|347,13|13,380|380,13|13,389|389,13|13,459|459,13|13,461|461,13|13,496|496,13|13,503|503,13|13,514|514,13|13,528|528,13|13,550|550,13|13,597|597,13|13,598|598,13|13,611|611,13|13,626|626,13|13,632|632,13|13,634|634,13|13,680|680,13|13,705|705,13|13,716|716,13|14,32|32,14|14,82|82,14|14,99|99,14|14,148|148,14|14,164|164,14|14,179|179,14|14,190|190,14|14,215|215,14|14,228|228,14|14,235|235,14|14,243|243,14|14,268|268,14|14,285|285,14|14,308|308,14|14,327|327,14|14,328|328,14|14,343|343,14|14,346|346,14|14,351|351,14|14,369|369,14|14,377|377,14|14,392|392,14|14,416|416,14|14,438|438,14|14,452|452,14|14,453|453,14|14,491|491,14|14,492|492,14|14,509|509,14|14,513|513,14|14,543|543,14|14,555|555,14|14,563|563,14|14,584|584,14|14,591|591,14|14,650|650,14|14,653|653,14|14,674|674,14|14,682|682,14|14,686|686,14|15,33|33,15|15,79|79,15|15,87|87,15|15,107|107,15|15,120|120,15|15,136|136,15|15,146|146,15|15,147|147,15|15,165|165,15|15,177|177,15|15,195|195,15|15,221|221,15|15,232|232,15|15,248|248,15|15,261|261,15|15,267|267,15|15,363|363,15|15,371|371,15|15,385|385,15|15,398|398,15|15,402|402,15|15,442|442,15|15,458|458,15|15,473|473,15|15,488|488,15|15,490|490,15|15,493|493,15|15,524|524,15|15,538|538,15|15,547|547,15|15,551|551,15|15,576|576,15|15,590|590,15|15,614|614,15|15,631|631,15|15,649|649,15|15,689|689,15|15,704|704,15|15,718|718,15|15,719|719,15|16,34|34,16|16,71|71,16|16,93|93,16|16,102|102,16|16,109|109,16|16,122|122,16|16,131|131,16|16,134|134,16|16,140|140,16|16,156|156,16|16,197|197,16|16,206|206,16|16,227|227,16|16,257|257,16|16,264|264,16|16,311|311,16|16,313|313,16|16,324|324,16|16,358|358,16|16,367|367,16|16,372|372,16|16,383|383,16|16,387|387,16|16,404|404,16|16,407|407,16|16,421|421,16|16,451|451,16|16,462|462,16|16,480|480,16|16,485|485,16|16,486|486,16|16,489|489,16|16,506|506,16|16,512|512,16|16,574|574,16|16,683|683,16|16,685|685,16|17,35|35,17|17,43|43,17|17,60|60,17|17,62|62,17|17,155|155,17|17,189|189,17|17,198|198,17|17,263|263,17|17,272|272,17|17,277|277,17|17,283|283,17|17,293|293,17|17,316|316,17|17,339|339,17|17,373|373,17|17,397|397,17|17,410|410,17|17,440|440,17|17,450|450,17|17,466|466,17|17,468|468,17|17,479|479,17|17,484|484,17|17,495|495,17|17,523|523,17|17,529|529,17|17,535|535,17|17,542|542,17|17,554|554,17|17,587|587,17|17,592|592,17|17,624|624,17|17,628|628,17|17,643|643,17|17,679|679,17|17,690|690,17|17,695|695,17|17,700|700,17|17,715|715,17|18,36|36,18|18,41|41,18|18,63|63,18|18,64|64,18|18,85|85,18|18,94|94,18|18,101|101,18|18,105|105,18|18,113|113,18|18,118|118,18|18,151|151,18|18,152|152,18|18,160|160,18|18,171|171,18|18,175|175,18|18,178|178,18|18,211|211,18|18,236|236,18|18,254|254,18|18,297|297,18|18,309|309,18|18,321|321,18|18,365|365,18|18,366|366,18|18,368|368,18|18,375|375,18|18,381|381,18|18,429|429,18|18,434|434,18|18,454|454,18|18,463|463,18|18,476|476,18|18,541|541,18|18,545|545,18|18,580|580,18|18,588|588,18|18,622|622,18|];
nodes = [|1,9,0,0,0,0,1,1|2,9,0,0,0,0,1,2|3,9,0,0,0,0,1,3|4,9,0,0,0,0,1,4|5,9,0,0,0,0,1,5|6,9,0,0,0,0,1,6|7,9,0,0,0,0,1,7|8,9,0,0,0,0,1,8|9,9,0,0,0,0,1,9|10,9,0,0,0,0,1,10|11,9,0,0,0,0,1,11|12,9,0,0,0,0,1,12|13,9,0,0,0,0,1,13|14,9,0,0,0,0,1,14|15,9,0,0,0,0,1,15|16,9,0,0,0,0,1,16|17,9,0,0,0,0,1,17|18,9,0,0,0,0,1,18|19,10,0,0,0,0,1,1|20,10,0,0,0,0,1,2|21,10,0,0,0,0,1,3|22,10,0,0,0,0,1,4|23,10,0,0,0,0,1,5|24,10,0,0,0,0,1,6|25,10,0,0,0,0,1,7|26,10,0,0,0,0,1,8|27,10,0,0,0,0,1,9|28,10,0,0,0,0,1,10|29,10,0,0,0,0,1,11|30,10,0,0,0,0,1,12|31,10,0,0,0,0,1,13|32,10,0,0,0,0,1,14|33,10,0,0,0,0,1,15|34,10,0,0,0,0,1,16|35,10,0,0,0,0,1,17|36,10,0,0,0,0,1,18|37,3,0,0,0,0,1,12|38,5,0,0,0,0,1,9|39,5,0,0,0,0,1,5|40,3,0,0,0,0,1,6|41,3,0,0,0,0,1,18|42,2,0,0,0,0,1,3|43,3,0,0,0,0,1,17|44,4,0,0,0,0,1,3|45,2,0,0,0,0,1,13|46,5,0,0,0,0,1,4|47,5,0,0,0,0,1,5|48,2,0,0,0,0,1,11|49,2,0,0,0,0,1,7|50,5,0,0,0,0,1,13|51,2,0,0,0,0,1,1|52,1,0,0,0,0,1,13|53,3,0,0,0,0,1,12|54,3,0,0,0,0,1,8|55,4,0,0,0,0,1,5|56,4,0,0,0,0,1,12|57,4,0,0,0,0,1,3|58,1,0,0,0,0,1,12|59,1,0,0,0,0,1,10|60,4,0,0,0,0,1,17|61,3,0,0,0,0,1,11|62,4,0,0,0,0,1,17|63,3,0,0,0,0,1,18|64,2,0,0,0,0,1,18|65,4,0,0,0,0,1,1|66,5,0,0,0,0,1,1|67,1,0,0,0,0,1,13|68,5,0,0,0,0,1,3|69,1,0,0,0,0,1,11|70,4,0,0,0,0,1,8|71,1,0,0,0,0,1,16|72,3,0,0,0,0,1,7|73,2,0,0,0,0,1,8|74,3,0,0,0,0,1,5|75,5,0,0,0,0,1,5|76,2,0,0,0,0,1,7|77,2,0,0,0,0,1,6|78,1,0,0,0,0,1,10|79,1,0,0,0,0,1,15|80,2,0,0,0,0,1,11|81,1,0,0,0,0,1,12|82,3,0,0,0,0,1,14|83,4,0,0,0,0,1,8|84,1,0,0,0,0,1,11|85,4,0,0,0,0,1,18|86,5,0,0,0,0,1,12|87,5,0,0,0,0,1,15|88,3,0,0,0,0,1,3|89,3,0,0,0,0,1,6|90,2,0,0,0,0,1,5|91,4,0,0,0,0,1,8|92,2,0,0,0,0,1,9|93,1,0,0,0,0,1,16|94,5,0,0,0,0,1,18|95,1,0,0,0,0,1,5|96,1,0,0,0,0,1,8|97,3,0,0,0,0,1,2|98,3,0,0,0,0,1,11|99,1,0,0,0,0,1,14|100,4,0,0,0,0,1,6|101,5,0,0,0,0,1,18|102,3,0,0,0,0,1,16|103,2,0,0,0,0,1,5|104,5,0,0,0,0,1,6|105,4,0,0,0,0,1,18|106,3,0,0,0,0,1,4|107,5,0,0,0,0,1,15|108,4,0,0,0,0,1,12|109,1,0,0,0,0,1,16|110,5,0,0,0,0,1,6|111,3,0,0,0,0,1,8|112,3,0,0,0,0,1,5|113,5,0,0,0,0,1,18|114,4,0,0,0,0,1,12|115,3,0,0,0,0,1,1|116,5,0,0,0,0,1,11|117,4,0,0,0,0,1,1|118,5,0,0,0,0,1,18|119,1,0,0,0,0,1,1|120,3,0,0,0,0,1,15|121,1,0,0,0,0,1,5|122,2,0,0,0,0,1,16|123,4,0,0,0,0,1,4|124,5,0,0,0,0,1,12|125,4,0,0,0,0,1,11|126,5,0,0,0,0,1,2|127,5,0,0,0,0,1,6|128,5,0,0,0,0,1,2|129,2,0,0,0,0,1,4|130,4,0,0,0,0,1,2|131,3,0,0,0,0,1,16|132,2,0,0,0,0,1,3|133,5,0,0,0,0,1,9|134,4,0,0,0,0,1,16|135,3,0,0,0,0,1,3|136,4,0,0,0,0,1,15|137,3,0,0,0,0,1,8|138,5,0,0,0,0,1,4|139,2,0,0,0,0,1,1|140,5,0,0,0,0,1,16|141,5,0,0,0,0,1,12|142,5,0,0,0,0,1,5|143,3,0,0,0,0,1,9|144,3,0,0,0,0,1,4|145,1,0,0,0,0,1,12|146,5,0,0,0,0,1,15|147,5,0,0,0,0,1,15|148,2,0,0,0,0,1,14|149,1,0,0,0,0,1,5|150,1,0,0,0,0,1,13|151,2,0,0,0,0,1,18|152,4,0,0,0,0,1,18|153,1,0,0,0,0,1,4|154,1,0,0,0,0,1,4|155,2,0,0,0,0,1,17|156,5,0,0,0,0,1,16|157,4,0,0,0,0,1,10|158,4,0,0,0,0,1,7|159,1,0,0,0,0,1,5|160,5,0,0,0,0,1,18|161,2,0,0,0,0,1,6|162,3,0,0,0,0,1,4|163,2,0,0,0,0,1,7|164,1,0,0,0,0,1,14|165,5,0,0,0,0,1,15|166,5,0,0,0,0,1,12|167,2,0,0,0,0,1,1|168,5,0,0,0,0,1,6|169,4,0,0,0,0,1,11|170,1,0,0,0,0,1,5|171,4,0,0,0,0,1,18|172,4,0,0,0,0,1,3|173,4,0,0,0,0,1,1|174,3,0,0,0,0,1,8|175,5,0,0,0,0,1,18|176,1,0,0,0,0,1,11|177,4,0,0,0,0,1,15|178,5,0,0,0,0,1,18|179,5,0,0,0,0,1,14|180,4,0,0,0,0,1,4|181,3,0,0,0,0,1,4|182,3,0,0,0,0,1,8|183,3,0,0,0,0,1,5|184,1,0,0,0,0,1,13|185,1,0,0,0,0,1,3|186,5,0,0,0,0,1,10|187,1,0,0,0,0,1,11|188,2,0,0,0,0,1,11|189,2,0,0,0,0,1,17|190,5,0,0,0,0,1,14|191,4,0,0,0,0,1,9|192,2,0,0,0,0,1,2|193,2,0,0,0,0,1,9|194,1,0,0,0,0,1,3|195,2,0,0,0,0,1,15|196,4,0,0,0,0,1,2|197,3,0,0,0,0,1,16|198,3,0,0,0,0,1,17|199,5,0,0,0,0,1,6|200,2,0,0,0,0,1,4|201,3,0,0,0,0,1,2|202,4,0,0,0,0,1,8|203,3,0,0,0,0,1,3|204,1,0,0,0,0,1,12|205,4,0,0,0,0,1,12|206,1,0,0,0,0,1,16|207,2,0,0,0,0,1,3|208,3,0,0,0,0,1,1|209,1,0,0,0,0,1,10|210,2,0,0,0,0,1,12|211,4,0,0,0,0,1,18|212,5,0,0,0,0,1,3|213,2,0,0,0,0,1,12|214,4,0,0,0,0,1,3|215,5,0,0,0,0,1,14|216,5,0,0,0,0,1,12|217,3,0,0,0,0,1,13|218,2,0,0,0,0,1,10|219,2,0,0,0,0,1,13|220,3,0,0,0,0,1,6|221,3,0,0,0,0,1,15|222,5,0,0,0,0,1,11|223,5,0,0,0,0,1,9|224,1,0,0,0,0,1,2|225,3,0,0,0,0,1,6|226,5,0,0,0,0,1,1|227,2,0,0,0,0,1,16|228,5,0,0,0,0,1,14|229,1,0,0,0,0,1,13|230,2,0,0,0,0,1,3|231,4,0,0,0,0,1,11|232,1,0,0,0,0,1,15|233,5,0,0,0,0,1,1|234,1,0,0,0,0,1,11|235,4,0,0,0,0,1,14|236,2,0,0,0,0,1,18|237,2,0,0,0,0,1,7|238,4,0,0,0,0,1,5|239,2,0,0,0,0,1,3|240,4,0,0,0,0,1,1|241,1,0,0,0,0,1,13|242,4,0,0,0,0,1,1|243,5,0,0,0,0,1,14|244,2,0,0,0,0,1,7|245,5,0,0,0,0,1,10|246,2,0,0,0,0,1,11|247,3,0,0,0,0,1,6|248,2,0,0,0,0,1,15|249,2,0,0,0,0,1,4|250,2,0,0,0,0,1,11|251,1,0,0,0,0,1,12|252,2,0,0,0,0,1,6|253,4,0,0,0,0,1,11|254,1,0,0,0,0,1,18|255,3,0,0,0,0,1,7|256,2,0,0,0,0,1,10|257,5,0,0,0,0,1,16|258,1,0,0,0,0,1,4|259,4,0,0,0,0,1,10|260,2,0,0,0,0,1,8|261,5,0,0,0,0,1,15|262,4,0,0,0,0,1,3|263,3,0,0,0,0,1,17|264,2,0,0,0,0,1,16|265,5,0,0,0,0,1,7|266,4,0,0,0,0,1,3|267,1,0,0,0,0,1,15|268,2,0,0,0,0,1,14|269,2,0,0,0,0,1,5|270,4,0,0,0,0,1,6|271,5,0,0,0,0,1,7|272,3,0,0,0,0,1,17|273,2,0,0,0,0,1,13|274,2,0,0,0,0,1,9|275,3,0,0,0,0,1,3|276,1,0,0,0,0,1,3|277,2,0,0,0,0,1,17|278,1,0,0,0,0,1,11|279,4,0,0,0,0,1,7|280,5,0,0,0,0,1,9|281,1,0,0,0,0,1,12|282,4,0,0,0,0,1,10|283,3,0,0,0,0,1,17|284,5,0,0,0,0,1,9|285,1,0,0,0,0,1,14|286,2,0,0,0,0,1,13|287,5,0,0,0,0,1,13|288,3,0,0,0,0,1,13|289,1,0,0,0,0,1,8|290,5,0,0,0,0,1,7|291,4,0,0,0,0,1,1|292,3,0,0,0,0,1,2|293,3,0,0,0,0,1,17|294,2,0,0,0,0,1,3|295,3,0,0,0,0,1,9|296,2,0,0,0,0,1,8|297,3,0,0,0,0,1,18|298,4,0,0,0,0,1,2|299,3,0,0,0,0,1,1|300,5,0,0,0,0,1,1|301,3,0,0,0,0,1,9|302,1,0,0,0,0,1,8|303,1,0,0,0,0,1,6|304,4,0,0,0,0,1,1|305,3,0,0,0,0,1,7|306,1,0,0,0,0,1,1|307,2,0,0,0,0,1,4|308,1,0,0,0,0,1,14|309,2,0,0,0,0,1,18|310,4,0,0,0,0,1,6|311,4,0,0,0,0,1,16|312,4,0,0,0,0,1,6|313,3,0,0,0,0,1,16|314,2,0,0,0,0,1,12|315,5,0,0,0,0,1,5|316,1,0,0,0,0,1,17|317,5,0,0,0,0,1,2|318,1,0,0,0,0,1,4|319,4,0,0,0,0,1,10|320,5,0,0,0,0,1,7|321,3,0,0,0,0,1,18|322,4,0,0,0,0,1,10|323,4,0,0,0,0,1,4|324,1,0,0,0,0,1,16|325,5,0,0,0,0,1,5|326,5,0,0,0,0,1,8|327,5,0,0,0,0,1,14|328,5,0,0,0,0,1,14|329,2,0,0,0,0,1,3|330,3,0,0,0,0,1,5|331,1,0,0,0,0,1,2|332,5,0,0,0,0,1,5|333,1,0,0,0,0,1,9|334,2,0,0,0,0,1,2|335,2,0,0,0,0,1,12|336,4,0,0,0,0,1,5|337,1,0,0,0,0,1,13|338,1,0,0,0,0,1,2|339,3,0,0,0,0,1,17|340,4,0,0,0,0,1,11|341,2,0,0,0,0,1,10|342,4,0,0,0,0,1,3|343,2,0,0,0,0,1,14|344,4,0,0,0,0,1,1|345,1,0,0,0,0,1,13|346,4,0,0,0,0,1,14|347,1,0,0,0,0,1,13|348,4,0,0,0,0,1,9|349,5,0,0,0,0,1,12|350,1,0,0,0,0,1,4|351,5,0,0,0,0,1,14|352,3,0,0,0,0,1,12|353,5,0,0,0,0,1,2|354,4,0,0,0,0,1,4|355,4,0,0,0,0,1,1|356,4,0,0,0,0,1,9|357,1,0,0,0,0,1,9|358,5,0,0,0,0,1,16|359,3,0,0,0,0,1,4|360,1,0,0,0,0,1,3|361,5,0,0,0,0,1,7|362,4,0,0,0,0,1,12|363,4,0,0,0,0,1,15|364,1,0,0,0,0,1,4|365,3,0,0,0,0,1,18|366,5,0,0,0,0,1,18|367,5,0,0,0,0,1,16|368,1,0,0,0,0,1,18|369,4,0,0,0,0,1,14|370,5,0,0,0,0,1,3|371,2,0,0,0,0,1,15|372,1,0,0,0,0,1,16|373,4,0,0,0,0,1,17|374,3,0,0,0,0,1,2|375,1,0,0,0,0,1,18|376,2,0,0,0,0,1,10|377,4,0,0,0,0,1,14|378,3,0,0,0,0,1,8|379,2,0,0,0,0,1,2|380,1,0,0,0,0,1,13|381,5,0,0,0,0,1,18|382,3,0,0,0,0,1,8|383,1,0,0,0,0,1,16|384,2,0,0,0,0,1,9|385,5,0,0,0,0,1,15|386,2,0,0,0,0,1,12|387,5,0,0,0,0,1,16|388,3,0,0,0,0,1,9|389,3,0,0,0,0,1,13|390,4,0,0,0,0,1,5|391,5,0,0,0,0,1,8|392,5,0,0,0,0,1,14|393,4,0,0,0,0,1,8|394,1,0,0,0,0,1,8|395,4,0,0,0,0,1,9|396,3,0,0,0,0,1,5|397,5,0,0,0,0,1,17|398,3,0,0,0,0,1,15|399,1,0,0,0,0,1,10|400,5,0,0,0,0,1,11|401,1,0,0,0,0,1,6|402,2,0,0,0,0,1,15|403,4,0,0,0,0,1,9|404,4,0,0,0,0,1,16|405,5,0,0,0,0,1,11|406,4,0,0,0,0,1,4|407,1,0,0,0,0,1,16|408,1,0,0,0,0,1,10|409,3,0,0,0,0,1,11|410,4,0,0,0,0,1,17|411,4,0,0,0,0,1,9|412,5,0,0,0,0,1,10|413,3,0,0,0,0,1,4|414,2,0,0,0,0,1,3|415,5,0,0,0,0,1,10|416,4,0,0,0,0,1,14|417,2,0,0,0,0,1,10|418,4,0,0,0,0,1,8|419,2,0,0,0,0,1,4|420,5,0,0,0,0,1,7|421,3,0,0,0,0,1,16|422,5,0,0,0,0,1,5|423,3,0,0,0,0,1,2|424,2,0,0,0,0,1,2|425,5,0,0,0,0,1,10|426,1,0,0,0,0,1,2|427,5,0,0,0,0,1,12|428,4,0,0,0,0,1,6|429,3,0,0,0,0,1,18|430,3,0,0,0,0,1,7|431,3,0,0,0,0,1,7|432,5,0,0,0,0,1,7|433,3,0,0,0,0,1,7|434,5,0,0,0,0,1,18|435,3,0,0,0,0,1,11|436,3,0,0,0,0,1,10|437,4,0,0,0,0,1,7|438,1,0,0,0,0,1,14|439,1,0,0,0,0,1,10|440,1,0,0,0,0,1,17|441,4,0,0,0,0,1,10|442,1,0,0,0,0,1,15|443,4,0,0,0,0,1,8|444,5,0,0,0,0,1,8|445,3,0,0,0,0,1,4|446,2,0,0,0,0,1,9|447,2,0,0,0,0,1,3|448,3,0,0,0,0,1,2|449,1,0,0,0,0,1,5|450,4,0,0,0,0,1,17|451,2,0,0,0,0,1,16|452,3,0,0,0,0,1,14|453,4,0,0,0,0,1,14|454,3,0,0,0,0,1,18|455,3,0,0,0,0,1,9|456,3,0,0,0,0,1,8|457,3,0,0,0,0,1,11|458,2,0,0,0,0,1,15|459,3,0,0,0,0,1,13|460,2,0,0,0,0,1,9|461,4,0,0,0,0,1,13|462,2,0,0,0,0,1,16|463,1,0,0,0,0,1,18|464,3,0,0,0,0,1,11|465,1,0,0,0,0,1,7|466,3,0,0,0,0,1,17|467,3,0,0,0,0,1,8|468,3,0,0,0,0,1,17|469,4,0,0,0,0,1,11|470,5,0,0,0,0,1,7|471,3,0,0,0,0,1,9|472,5,0,0,0,0,1,9|473,5,0,0,0,0,1,15|474,1,0,0,0,0,1,4|475,5,0,0,0,0,1,7|476,2,0,0,0,0,1,18|477,1,0,0,0,0,1,1|478,4,0,0,0,0,1,9|479,2,0,0,0,0,1,17|480,2,0,0,0,0,1,16|481,1,0,0,0,0,1,4|482,2,0,0,0,0,1,6|483,2,0,0,0,0,1,6|484,2,0,0,0,0,1,17|485,1,0,0,0,0,1,16|486,3,0,0,0,0,1,16|487,3,0,0,0,0,1,2|488,2,0,0,0,0,1,15|489,2,0,0,0,0,1,16|490,2,0,0,0,0,1,15|491,4,0,0,0,0,1,14|492,5,0,0,0,0,1,14|493,1,0,0,0,0,1,15|494,5,0,0,0,0,1,6|495,4,0,0,0,0,1,17|496,2,0,0,0,0,1,13|497,2,0,0,0,0,1,8|498,1,0,0,0,0,1,7|499,4,0,0,0,0,1,6|500,1,0,0,0,0,1,9|501,5,0,0,0,0,1,5|502,5,0,0,0,0,1,3|503,5,0,0,0,0,1,13|504,2,0,0,0,0,1,11|505,4,0,0,0,0,1,10|506,3,0,0,0,0,1,16|507,5,0,0,0,0,1,7|508,2,0,0,0,0,1,1|509,2,0,0,0,0,1,14|510,3,0,0,0,0,1,10|511,3,0,0,0,0,1,2|512,2,0,0,0,0,1,16|513,1,0,0,0,0,1,14|514,5,0,0,0,0,1,13|515,2,0,0,0,0,1,4|516,5,0,0,0,0,1,1|517,5,0,0,0,0,1,8|518,4,0,0,0,0,1,3|519,2,0,0,0,0,1,3|520,2,0,0,0,0,1,5|521,1,0,0,0,0,1,6|522,3,0,0,0,0,1,1|523,2,0,0,0,0,1,17|524,1,0,0,0,0,1,15|525,3,0,0,0,0,1,4|526,1,0,0,0,0,1,7|527,3,0,0,0,0,1,10|528,5,0,0,0,0,1,13|529,1,0,0,0,0,1,17|530,3,0,0,0,0,1,1|531,4,0,0,0,0,1,1|532,4,0,0,0,0,1,8|533,3,0,0,0,0,1,5|534,1,0,0,0,0,1,2|535,4,0,0,0,0,1,17|536,2,0,0,0,0,1,11|537,2,0,0,0,0,1,11|538,1,0,0,0,0,1,15|539,1,0,0,0,0,1,6|540,5,0,0,0,0,1,10|541,4,0,0,0,0,1,18|542,4,0,0,0,0,1,17|543,3,0,0,0,0,1,14|544,5,0,0,0,0,1,3|545,5,0,0,0,0,1,18|546,4,0,0,0,0,1,5|547,1,0,0,0,0,1,15|548,3,0,0,0,0,1,2|549,4,0,0,0,0,1,7|550,5,0,0,0,0,1,13|551,1,0,0,0,0,1,15|552,3,0,0,0,0,1,7|553,2,0,0,0,0,1,2|554,2,0,0,0,0,1,17|555,3,0,0,0,0,1,14|556,4,0,0,0,0,1,3|557,5,0,0,0,0,1,2|558,3,0,0,0,0,1,4|559,3,0,0,0,0,1,6|560,4,0,0,0,0,1,10|561,1,0,0,0,0,1,6|562,4,0,0,0,0,1,8|563,2,0,0,0,0,1,14|564,2,0,0,0,0,1,2|565,1,0,0,0,0,1,10|566,2,0,0,0,0,1,6|567,2,0,0,0,0,1,12|568,5,0,0,0,0,1,8|569,4,0,0,0,0,1,10|570,4,0,0,0,0,1,7|571,2,0,0,0,0,1,3|572,3,0,0,0,0,1,12|573,2,0,0,0,0,1,10|574,3,0,0,0,0,1,16|575,3,0,0,0,0,1,8|576,5,0,0,0,0,1,15|577,1,0,0,0,0,1,6|578,5,0,0,0,0,1,4|579,1,0,0,0,0,1,1|580,2,0,0,0,0,1,18|581,5,0,0,0,0,1,1|582,2,0,0,0,0,1,1|583,1,0,0,0,0,1,1|584,3,0,0,0,0,1,14|585,4,0,0,0,0,1,1|586,5,0,0,0,0,1,5|587,5,0,0,0,0,1,17|588,1,0,0,0,0,1,18|589,3,0,0,0,0,1,5|590,1,0,0,0,0,1,15|591,1,0,0,0,0,1,14|592,2,0,0,0,0,1,17|593,5,0,0,0,0,1,1|594,4,0,0,0,0,1,5|595,1,0,0,0,0,1,2|596,4,0,0,0,0,1,11|597,5,0,0,0,0,1,13|598,2,0,0,0,0,1,13|599,1,0,0,0,0,1,11|600,3,0,0,0,0,1,12|601,4,0,0,0,0,1,1|602,4,0,0,0,0,1,7|603,2,0,0,0,0,1,12|604,4,0,0,0,0,1,5|605,4,0,0,0,0,1,7|606,4,0,0,0,0,1,2|607,2,0,0,0,0,1,10|608,3,0,0,0,0,1,8|609,2,0,0,0,0,1,5|610,5,0,0,0,0,1,9|611,3,0,0,0,0,1,13|612,2,0,0,0,0,1,11|613,5,0,0,0,0,1,10|614,3,0,0,0,0,1,15|615,3,0,0,0,0,1,9|616,1,0,0,0,0,1,12|617,5,0,0,0,0,1,6|618,5,0,0,0,0,1,9|619,3,0,0,0,0,1,8|620,1,0,0,0,0,1,7|621,2,0,0,0,0,1,12|622,1,0,0,0,0,1,18|623,4,0,0,0,0,1,7|624,1,0,0,0,0,1,17|625,2,0,0,0,0,1,4|626,3,0,0,0,0,1,13|627,2,0,0,0,0,1,6|628,3,0,0,0,0,1,17|629,1,0,0,0,0,1,5|630,5,0,0,0,0,1,6|631,3,0,0,0,0,1,15|632,1,0,0,0,0,1,13|633,1,0,0,0,0,1,4|634,1,0,0,0,0,1,13|635,2,0,0,0,0,1,1|636,4,0,0,0,0,1,12|637,4,0,0,0,0,1,10|638,4,0,0,0,0,1,4|639,1,0,0,0,0,1,12|640,3,0,0,0,0,1,3|641,1,0,0,0,0,1,4|642,4,0,0,0,0,1,2|643,1,0,0,0,0,1,17|644,4,0,0,0,0,1,11|645,2,0,0,0,0,1,3|646,2,0,0,0,0,1,7|647,4,0,0,0,0,1,8|648,2,0,0,0,0,1,4|649,1,0,0,0,0,1,15|650,2,0,0,0,0,1,14|651,1,0,0,0,0,1,8|652,3,0,0,0,0,1,4|653,3,0,0,0,0,1,14|654,2,0,0,0,0,1,3|655,5,0,0,0,0,1,12|656,1,0,0,0,0,1,3|657,4,0,0,0,0,1,4|658,1,0,0,0,0,1,1|659,2,0,0,0,0,1,10|660,4,0,0,0,0,1,6|661,2,0,0,0,0,1,9|662,1,0,0,0,0,1,1|663,5,0,0,0,0,1,6|664,4,0,0,0,0,1,7|665,4,0,0,0,0,1,3|666,2,0,0,0,0,1,12|667,4,0,0,0,0,1,8|668,4,0,0,0,0,1,2|669,1,0,0,0,0,1,10|670,2,0,0,0,0,1,11|671,3,0,0,0,0,1,6|672,5,0,0,0,0,1,5|673,2,0,0,0,0,1,7|674,2,0,0,0,0,1,14|675,5,0,0,0,0,1,7|676,4,0,0,0,0,1,11|677,1,0,0,0,0,1,1|678,1,0,0,0,0,1,2|679,3,0,0,0,0,1,17|680,2,0,0,0,0,1,13|681,1,0,0,0,0,1,10|682,5,0,0,0,0,1,14|683,5,0,0,0,0,1,16|684,2,0,0,0,0,1,7|685,5,0,0,0,0,1,16|686,1,0,0,0,0,1,14|687,3,0,0,0,0,1,9|688,5,0,0,0,0,1,5|689,4,0,0,0,0,1,15|690,2,0,0,0,0,1,17|691,2,0,0,0,0,1,2|692,5,0,0,0,0,1,8|693,4,0,0,0,0,1,9|694,1,0,0,0,0,1,2|695,1,0,0,0,0,1,17|696,5,0,0,0,0,1,4|697,5,0,0,0,0,1,6|698,2,0,0,0,0,1,2|699,3,0,0,0,0,1,2|700,5,0,0,0,0,1,17|701,5,0,0,0,0,1,12|702,3,0,0,0,0,1,1|703,5,0,0,0,0,1,2|704,2,0,0,0,0,1,15|705,2,0,0,0,0,1,13|706,3,0,0,0,0,1,10|707,1,0,0,0,0,1,3|708,2,0,0,0,0,1,11|709,5,0,0,0,0,1,6|710,5,0,0,0,0,1,8|711,5,0,0,0,0,1,5|712,2,0,0,0,0,1,11|713,4,0,0,0,0,1,9|714,3,0,0,0,0,1,9|715,3,0,0,0,0,1,17|716,4,0,0,0,0,1,13|717,2,0,0,0,0,1,6|718,5,0,0,0,0,1,15|719,1,0,0,0,0,1,15|720,2,0,0,0,0,1,11|721,3,0,0,0,0,1,10|722,5,0,0,0,0,1,9|723,1,0,0,0,0,1,2|];
